words_hard_train/6892.qaiger
aag 182 24 0 1 158
2
4
12
14
18
22
26
30
34
44
46
50
56
62
68
74
80
98
106
120
138
156
174
190
365
6 2 4
8 3 5
10 7 9
16 13 15
20 16 19
24 20 23
28 24 27
32 28 31
36 32 35
38 10 37
40 11 36
42 39 41
48 44 46
52 50 46
54 49 53
58 56 46
60 54 59
64 62 46
66 60 65
70 68 46
72 66 71
76 74 46
78 72 77
82 78 81
84 82 46
86 43 85
88 42 84
90 87 89
92 52 45
94 53 44
96 93 95
100 96 99
102 97 98
104 101 103
108 106 50
110 104 108
112 111 103
114 55 56
116 54 57
118 115 117
122 119 121
124 118 120
126 123 125
128 113 126
130 129 125
132 61 63
134 60 62
136 133 135
140 136 139
142 137 138
144 141 143
146 131 144
148 147 143
150 67 68
152 66 69
154 151 153
158 155 157
160 154 156
162 159 161
164 149 162
166 165 161
168 73 74
170 72 75
172 169 171
176 173 175
178 172 174
180 177 179
182 167 180
184 183 179
186 79 80
188 187 83
192 189 191
194 188 190
196 193 195
198 185 196
200 199 195
202 91 200
204 90 201
206 203 205
208 107 51
210 209 109
212 210 12
214 105 109
216 215 111
218 12 14
220 219 17
222 216 220
224 213 223
226 217 221
228 225 227
230 112 127
232 231 129
234 17 18
236 235 21
238 233 237
240 232 236
242 239 241
244 228 242
246 245 241
248 130 145
250 249 147
252 21 22
254 253 25
256 251 255
258 250 254
260 257 259
262 247 260
264 263 259
266 148 163
268 267 165
270 25 26
272 271 29
274 269 273
276 268 272
278 275 277
280 265 278
282 281 277
284 166 181
286 285 183
288 29 30
290 289 33
292 287 291
294 286 290
296 293 295
298 283 296
300 299 295
302 184 197
304 303 199
306 33 34
308 307 37
310 305 309
312 304 308
314 311 313
316 301 314
318 317 313
320 207 319
322 206 318
324 321 323
326 264 279
328 327 281
330 211 13
332 329 331
334 246 261
336 335 263
338 229 243
340 339 245
342 337 341
344 223 227
346 342 345
348 346 213
350 282 297
352 351 299
354 348 353
356 300 315
358 357 317
360 354 359
362 332 360
364 324 362
i0 1 x2[7]
i1 1 x1[7]
i2 1 x1[0]
i3 1 x1[1]
i4 1 x1[2]
i5 1 x1[3]
i6 1 x1[4]
i7 1 x1[5]
i8 1 x1[6]
i9 2 y1[1]
i10 2 y1[7]
i11 2 y1[0]
i12 2 y1[2]
i13 2 y1[3]
i14 2 y1[4]
i15 2 y1[5]
i16 2 y1[6]
i17 1 x2[1]
i18 1 x2[0]
i19 1 x2[2]
i20 1 x2[3]
i21 1 x2[4]
i22 1 x2[5]
i23 1 x2[6]
o0 bool[0]
c
simplified
  !=
    1
    subtract
      add
        abs
          2 y1
        1 x2
      1 x1
