words_hard_train/6892.qaiger.qdimacs
p cnf 182 475
a 1 2 69 6 7 9 11 13 78 15 17 49 53 87 60 95 0
e 3 4 5 8 10 12 14 16 18 19 20 21 22 23 24 25 26 27 28 29 30 31 32 33 34 35 36 37 38 39 40 41 42 43 44 45 46 47 48 50 51 52 54 55 56 57 58 59 61 62 63 64 65 66 67 68 70 71 72 73 74 75 76 77 79 80 81 82 83 84 85 86 88 89 90 91 92 93 94 96 97 98 99 100 101 102 103 104 105 106 107 108 109 110 111 112 113 114 115 116 117 118 119 120 121 122 123 124 125 126 127 128 129 130 131 132 133 134 135 136 137 138 139 140 141 142 143 144 145 146 147 148 149 150 151 152 153 154 155 156 157 158 159 160 161 162 163 164 165 166 167 168 169 170 171 172 173 174 175 176 177 178 179 180 181 182 0
-1 -2 3 0
1 -3 0
2 -3 0
1 2 4 0
-1 -4 0
-2 -4 0
3 4 5 0
-3 -5 0
-4 -5 0
6 7 8 0
-6 -8 0
-7 -8 0
-8 9 10 0
8 -10 0
-9 -10 0
-10 11 12 0
10 -12 0
-11 -12 0
-12 13 14 0
12 -14 0
-13 -14 0
-14 15 16 0
14 -16 0
-15 -16 0
-16 17 18 0
16 -18 0
-17 -18 0
-5 18 19 0
5 -19 0
-18 -19 0
5 -18 20 0
-5 -20 0
18 -20 0
19 20 21 0
-19 -21 0
-20 -21 0
-22 -23 24 0
22 -24 0
23 -24 0
-25 -23 26 0
25 -26 0
23 -26 0
24 26 27 0
-24 -27 0
-26 -27 0
-28 -23 29 0
28 -29 0
23 -29 0
-27 29 30 0
27 -30 0
-29 -30 0
-31 -23 32 0
31 -32 0
23 -32 0
-30 32 33 0
30 -33 0
-32 -33 0
-34 -23 35 0
34 -35 0
23 -35 0
-33 35 36 0
33 -36 0
-35 -36 0
-37 -23 38 0
37 -38 0
23 -38 0
-36 38 39 0
36 -39 0
-38 -39 0
-39 40 41 0
39 -41 0
-40 -41 0
-41 -23 42 0
41 -42 0
23 -42 0
21 42 43 0
-21 -43 0
-42 -43 0
-21 -42 44 0
21 -44 0
42 -44 0
43 44 45 0
-43 -45 0
-44 -45 0
-26 22 46 0
26 -46 0
-22 -46 0
26 -22 47 0
-26 -47 0
22 -47 0
46 47 48 0
-46 -48 0
-47 -48 0
-48 49 50 0
48 -50 0
-49 -50 0
48 -49 51 0
-48 -51 0
49 -51 0
50 51 52 0
-50 -52 0
-51 -52 0
-53 -25 54 0
53 -54 0
25 -54 0
-52 -54 55 0
52 -55 0
54 -55 0
55 51 56 0
-55 -56 0
-51 -56 0
27 -28 57 0
-27 -57 0
28 -57 0
-27 28 58 0
27 -58 0
-28 -58 0
57 58 59 0
-57 -59 0
-58 -59 0
59 60 61 0
-59 -61 0
-60 -61 0
-59 -60 62 0
59 -62 0
60 -62 0
61 62 63 0
-61 -63 0
-62 -63 0
56 -63 64 0
-56 -64 0
63 -64 0
64 62 65 0
-64 -65 0
-62 -65 0
30 31 66 0
-30 -66 0
-31 -66 0
-30 -31 67 0
30 -67 0
31 -67 0
66 67 68 0
-66 -68 0
-67 -68 0
-68 69 70 0
68 -70 0
-69 -70 0
68 -69 71 0
-68 -71 0
69 -71 0
70 71 72 0
-70 -72 0
-71 -72 0
65 -72 73 0
-65 -73 0
72 -73 0
73 71 74 0
-73 -74 0
-71 -74 0
33 -34 75 0
-33 -75 0
34 -75 0
-33 34 76 0
33 -76 0
-34 -76 0
75 76 77 0
-75 -77 0
-76 -77 0
77 78 79 0
-77 -79 0
-78 -79 0
-77 -78 80 0
77 -80 0
78 -80 0
79 80 81 0
-79 -81 0
-80 -81 0
74 -81 82 0
-74 -82 0
81 -82 0
82 80 83 0
-82 -83 0
-80 -83 0
36 -37 84 0
-36 -84 0
37 -84 0
-36 37 85 0
36 -85 0
-37 -85 0
84 85 86 0
-84 -86 0
-85 -86 0
86 87 88 0
-86 -88 0
-87 -88 0
-86 -87 89 0
86 -89 0
87 -89 0
88 89 90 0
-88 -90 0
-89 -90 0
83 -90 91 0
-83 -91 0
90 -91 0
91 89 92 0
-91 -92 0
-89 -92 0
39 -40 93 0
-39 -93 0
40 -93 0
93 41 94 0
-93 -94 0
-41 -94 0
94 95 96 0
-94 -96 0
-95 -96 0
-94 -95 97 0
94 -97 0
95 -97 0
96 97 98 0
-96 -98 0
-97 -98 0
92 -98 99 0
-92 -99 0
98 -99 0
99 97 100 0
-99 -100 0
-97 -100 0
45 -100 101 0
-45 -101 0
100 -101 0
-45 100 102 0
45 -102 0
-100 -102 0
101 102 103 0
-101 -103 0
-102 -103 0
53 25 104 0
-53 -104 0
-25 -104 0
104 54 105 0
-104 -105 0
-54 -105 0
-105 -6 106 0
105 -106 0
6 -106 0
52 54 107 0
-52 -107 0
-54 -107 0
107 55 108 0
-107 -108 0
-55 -108 0
-6 -7 109 0
6 -109 0
7 -109 0
109 8 110 0
-109 -110 0
-8 -110 0
-108 -110 111 0
108 -111 0
110 -111 0
106 111 112 0
-106 -112 0
-111 -112 0
108 110 113 0
-108 -113 0
-110 -113 0
112 113 114 0
-112 -114 0
-113 -114 0
-56 63 115 0
56 -115 0
-63 -115 0
115 64 116 0
-115 -116 0
-64 -116 0
8 -9 117 0
-8 -117 0
9 -117 0
117 10 118 0
-117 -118 0
-10 -118 0
116 118 119 0
-116 -119 0
-118 -119 0
-116 -118 120 0
116 -120 0
118 -120 0
119 120 121 0
-119 -121 0
-120 -121 0
-114 -121 122 0
114 -122 0
121 -122 0
122 120 123 0
-122 -123 0
-120 -123 0
-65 72 124 0
65 -124 0
-72 -124 0
124 73 125 0
-124 -125 0
-73 -125 0
10 -11 126 0
-10 -126 0
11 -126 0
126 12 127 0
-126 -127 0
-12 -127 0
125 127 128 0
-125 -128 0
-127 -128 0
-125 -127 129 0
125 -129 0
127 -129 0
128 129 130 0
-128 -130 0
-129 -130 0
123 -130 131 0
-123 -131 0
130 -131 0
131 129 132 0
-131 -132 0
-129 -132 0
-74 81 133 0
74 -133 0
-81 -133 0
133 82 134 0
-133 -134 0
-82 -134 0
12 -13 135 0
-12 -135 0
13 -135 0
135 14 136 0
-135 -136 0
-14 -136 0
134 136 137 0
-134 -137 0
-136 -137 0
-134 -136 138 0
134 -138 0
136 -138 0
137 138 139 0
-137 -139 0
-138 -139 0
132 -139 140 0
-132 -140 0
139 -140 0
140 138 141 0
-140 -141 0
-138 -141 0
-83 90 142 0
83 -142 0
-90 -142 0
142 91 143 0
-142 -143 0
-91 -143 0
14 -15 144 0
-14 -144 0
15 -144 0
144 16 145 0
-144 -145 0
-16 -145 0
143 145 146 0
-143 -146 0
-145 -146 0
-143 -145 147 0
143 -147 0
145 -147 0
146 147 148 0
-146 -148 0
-147 -148 0
141 -148 149 0
-141 -149 0
148 -149 0
149 147 150 0
-149 -150 0
-147 -150 0
-92 98 151 0
92 -151 0
-98 -151 0
151 99 152 0
-151 -152 0
-99 -152 0
16 -17 153 0
-16 -153 0
17 -153 0
153 18 154 0
-153 -154 0
-18 -154 0
152 154 155 0
-152 -155 0
-154 -155 0
-152 -154 156 0
152 -156 0
154 -156 0
155 156 157 0
-155 -157 0
-156 -157 0
150 -157 158 0
-150 -158 0
157 -158 0
158 156 159 0
-158 -159 0
-156 -159 0
103 159 160 0
-103 -160 0
-159 -160 0
-103 -159 161 0
103 -161 0
159 -161 0
160 161 162 0
-160 -162 0
-161 -162 0
-132 139 163 0
132 -163 0
-139 -163 0
163 140 164 0
-163 -164 0
-140 -164 0
105 6 165 0
-105 -165 0
-6 -165 0
164 165 166 0
-164 -166 0
-165 -166 0
-123 130 167 0
123 -167 0
-130 -167 0
167 131 168 0
-167 -168 0
-131 -168 0
114 121 169 0
-114 -169 0
-121 -169 0
169 122 170 0
-169 -170 0
-122 -170 0
168 170 171 0
-168 -171 0
-170 -171 0
111 113 172 0
-111 -172 0
-113 -172 0
-171 172 173 0
171 -173 0
-172 -173 0
-173 106 174 0
173 -174 0
-106 -174 0
-141 148 175 0
141 -175 0
-148 -175 0
175 149 176 0
-175 -176 0
-149 -176 0
-174 176 177 0
174 -177 0
-176 -177 0
-150 157 178 0
150 -178 0
-157 -178 0
178 158 179 0
-178 -179 0
-158 -179 0
-177 179 180 0
177 -180 0
-179 -180 0
-166 -180 181 0
166 -181 0
180 -181 0
-162 -181 182 0
162 -182 0
181 -182 0
-182 0
